c SAT problem
p wcnf 42 43
1 -90 -3105 0
1 90 105 0
1 -105 3075 0
1 -3120 -165 0
1 -3120 120 0
1 3135 181 0
1 3150 -136 0
1 -3150 -75 0
1 3150 60 0
1 3150 -3165 0
1 3165 196 0
1 -135 3135 0
1 -165 -3000 0
1 3060 -195 0
1 3060 210 0
1 3060 180 0
1 -3075 240 0
1 3090 150 0
1 -180 3030 0
1 210 225 0
1 -210 -3030 0
1 225 -226 0
1 3045 -255 0
1 -121 3255 0
1 151 -3285 0
1 166 -3150 0
1 -3240 -166 0
1 -3240 136 0
1 3255 -211 0
1 3255 -181 0
1 181 -3225 0
1 211 -3210 0
1 -211 -3225 0
1 3180 226 0
1 3180 -196 0
1 3180 -166 0
1 -3180 255 0
1 -3195 3180 0
1 3225 211 0
1 -3225 181 0
1 -255 3105 0
1 -255 3151 0
1 -270 3180 0
